(set-info :status sat)
(declare-const symbol_32 (_ BitVec 32))
(declare-const symbol_35 (_ BitVec 32))
(declare-const symbol_27 (_ BitVec 32))
(declare-const symbol_17 (_ BitVec 32))
(declare-const symbol_33 (_ BitVec 32))
(declare-const symbol_54 (_ BitVec 32))
(declare-const symbol_45 (_ BitVec 32))
(declare-const symbol_49 (_ BitVec 32))
(declare-const symbol_26 (_ BitVec 32))
(declare-const symbol_29 (_ BitVec 32))
(declare-const symbol_15 (_ BitVec 32))
(declare-const symbol_0 (_ BitVec 32))
(declare-const symbol_9 (_ BitVec 32))
(declare-const symbol_47 (_ BitVec 32))
(declare-const symbol_52 (_ BitVec 32))
(declare-const symbol_11 (_ BitVec 32))
(declare-const symbol_3 (_ BitVec 32))
(declare-const symbol_24 (_ BitVec 32))
(declare-const symbol_50 (_ BitVec 32))
(declare-const symbol_40 (_ BitVec 32))
(declare-const symbol_37 (_ BitVec 32))
(declare-const symbol_21 (_ BitVec 32))
(declare-const symbol_19 (_ BitVec 32))
(declare-const symbol_43 (_ BitVec 32))
(declare-const symbol_2 (_ BitVec 32))
(declare-const symbol_13 (_ BitVec 32))
(declare-const symbol_56 (_ BitVec 32))
(declare-const symbol_8 (_ BitVec 32))
(declare-const symbol_5 (_ BitVec 32))
(assert (not (not (= symbol_56 (_ bv1 32)))))
(assert (not (not (= symbol_54 (_ bv1 32)))))
(assert (not (not (= symbol_52 (_ bv1 32)))))
(assert (not (not (= symbol_50 (_ bv1 32)))))
(assert (not (not (= symbol_49 (_ bv1 32)))))
(assert (not (not (= symbol_47 (_ bv1 32)))))
(assert (not (not (= symbol_45 (_ bv1 32)))))
(assert (not (not (= symbol_43 (_ bv1 32)))))
(assert (not (not (= symbol_40 (_ bv1 32)))))
(assert (not (not (= symbol_37 (_ bv1 32)))))
(assert (not (not (= symbol_35 (_ bv1 32)))))
(assert (not (not (= symbol_33 (_ bv1 32)))))
(assert (not (not (= symbol_32 (_ bv1 32)))))
(assert (not (not (= symbol_29 (_ bv1 32)))))
(assert (not (not (= symbol_27 (_ bv1 32)))))
(assert (not (not (= symbol_26 (_ bv1 32)))))
(assert (not (not (= symbol_24 (_ bv1 32)))))
(assert (not (not (= symbol_21 (_ bv1 32)))))
(assert (not (not (= symbol_19 (_ bv1 32)))))
(assert (not (not (= symbol_17 (_ bv1 32)))))
(assert (not (not (= symbol_15 (_ bv1 32)))))
(assert (not (not (= symbol_13 (_ bv1 32)))))
(assert (not (not (= symbol_11 (_ bv1 32)))))
(assert (not (not (= symbol_9 (_ bv1 32)))))
(assert (not (not (= symbol_8 (_ bv1 32)))))
(assert (not (not (= symbol_5 (_ bv1 32)))))
(assert (not (not (= symbol_3 (_ bv1 32)))))
(assert (not (not (= symbol_2 (_ bv1 32)))))
(assert (not (not (= symbol_0 (_ bv1 32)))))
(check-sat)